-353 -397 0
51 -397 0
-397 0
353 0
-45 0
1 0
89 0
-309 0
-133 0
23 0
-177 0
-67 0
-199 0
-265 0
12 0
34 0
375 0
-111 0
-56 0
-122 0
-188 0
-243 0
-254 0
-78 0
-144 0
-210 0
-276 0
-331 0
364 0
386 0
-320 0
-342 0
395 0
-51 0
-351 0
-219 0
-285 0
-153 0
53 0
389 0
359 0
43 0
30 0
41 0
19 0
8 0
7 0
-357 0
-3 0
0
